3186 8:1 26:1 244:1 1796:1 2553:1 4677:1
5449:1 5453:1 5456:1 6320:1 8736:1 10401:1
1377 1:1 19:1 656:1 1982:1 2491:1 4454:1
5441:1 5453:1 5456:1 8754:1 11583:1 25918:1
30545:1 30720:1 30721:1 31450:1 32021:1
32231:1 32442:1 33180:1 33679:1 33974:1
35559:1 42582:1 47246:1 47458:1
5262 1:1 19:1 249:1 2233:1 2402:1 3310:1
5441:1 5453:1 5456:1 9216:1 12329:1 15427:1
17210:1 20935:1 22347:1 22348:1 22425:1
23230:1 26267:1 26804:1 26820:1 27267:1
29600:1 30713:1 30714:1 30887:1 31126:1
31448:1 31849:1 32231:1 32485:1 33322:1
33703:1 33974:1 44370:1 44371:1 44373:1
47252:1 47701:1 48217:1 48235:1 48238:1
48256:1
1006 12:1 30:1 946:1 1794:1 2553:1 4663:1
5449:1 5453:1 5456:1 7777:1 8736:1 10400:1
3958 15:1 33:1 429:1 2530:1 5447:1 5456:1
9838:1 10784:1 23259:1 27358:1 27686:1 31463:1
44144:1 47243:1 48232:1 48236:1 48253:1
317 2:1 20:1 308:1 1303:1 2583:1 2693:1 5441:1
5453:1 5456:1 9127:1 12276:1 22773:1 23740:1
25946:1 26438:1 27884:1 28010:1 28468:1
29486:1 31451:1 31832:1 32211:1 32507:1
33322:1 33679:1 33974:1 36458:1 47251:1
47728:1 48218:1 48236:1 48240:1 48256:1
48321:1
4285 9:1 27:1 977:1 2078:1 2368:1 3281:1
5441:1 5453:1 5456:1 8643:1 8786:1 13083:1
13593:1 16057:1 16612:1 16825:2 17679:1
17700:1 17809:1 18394:2 19923:1 21009:1
21044:1 31459:1 31475:1 32296:1 32580:1
33088:1 33754:1 34105:1 44733:1 47252:1
48217:1 48256:1
3049 4:1 22:1 252:1 2424:1 5447:1 5456:1
9294:1 9930:1 15144:3 16797:3 18035:3 19480:3
20430:3 26744:1 26822:1 27107:1 31452:1
43068:3 47251:1 48217:1 48235:1 48238:1
1140 6:1 24:1 438:1 2258:1 5447:1 5456:1
9244:1 9930:1 11658:1 11968:2 12396:1 13484:1
14752:1 15023:1 16359:1 21002:1 21126:1
21238:1 31454:1 43280:1 43638:1 45625:1
46895:1 47186:1 47252:1 48222:1 48236:1
48243:1
783 6:1 24:1 451:1 1223:1 2445:1 5381:1 5441:1
5453:1 5456:1 9451:1 11442:1 30173:1 31456:1
31916:1 32237:1 32442:1 33283:1 33938:1
34170:1 47251:1 47807:1 48220:1 48235:1
48243:1 48256:1
2473 4:1 22:1 1034:1 1587:1 2423:1 3548:1
5441:1 5453:1 5456:1 9223:1 13801:1 14813:1
16441:2 17716:1 21840:1 26267:1 31455:1
31837:1 32253:1 32673:1 33506:1 33908:1
34042:1 47139:1 47143:1 47252:1 48139:1
48220:1 48236:1 48244:1
406 4:1 22:1 413:1 2580:1 5447:1 5456:1 9337:1
10888:1 11724:1 14738:1 15213:1 17966:1
30060:1 30094:1 30180:1 31454:1 41278:1
47252:1 48220:1 48236:1 48244:1
2027 8:1 26:1 430:1 2530:1 5447:1 5456:1
9465:1 9930:1 11303:1 11714:1 12881:1 14076:1
14731:1 15213:1 16939:1 16972:1 17054:1
18055:1 18116:2 18627:1 20559:1 21810:1
22577:2 43538:1 45133:1 45393:1 47252:1
48223:1 48236:1 48244:1
2970 5:1 23:1 219:1 1664:1 2403:1 3410:1
5441:1 5453:1 5456:1 9617:1 10349:1 11179:2
13317:1 15338:1 15797:1 16683:1 19339:2
31969:1 32288:1 32765:1 33322:1 33679:1
33974:1 43096:2 44085:1 47252:1 47685:1
48221:1 48236:1 48238:1 48256:1
93 14:1 32:1 680:1 1825:1 2590:1 3189:1 5441:1
5453:1 5456:1 5843:1 8934:1 12466:1 22934:1
22947:1 23194:1 23243:1 23649:1 23743:1
23770:1 23800:1 23802:1 23846:1 23924:1
24473:1 24695:1 24774:3 24851:1 24875:1
25307:1 25311:1 25548:1 26007:1 26081:1
26240:1 26242:3 26252:1 26284:1 26675:1
26761:1 26791:1 26792:1 26805:1 26987:1
27242:1 27352:1 27567:1 27568:1 27571:1
27641:2 27744:1 27861:1 27999:1 28124:1
28307:1 28456:1 29057:1 29236:1 29261:1
29393:1 29601:1 29648:1 29657:1 29805:1
30016:1 30017:1 30040:2 30042:1 30051:1
30075:1 30079:1 30582:1 30583:2 30584:1
30773:1 30977:1 31049:2 31054:1 31078:1
31363:1 31462:1 31848:1 32325:1 32777:1
33322:1 33692:1 33974:1 35064:1 45316:1
47252:1 47940:1 48231:1 48236:1 48252:1
48256:1
93 1:1 19:1 680:1 1825:1 2523:1 3236:1 5441:1
5453:1 5456:1 5801:1 8934:1 12466:3 22934:1
22947:1 23194:1 23243:1 23649:1 23743:1
23770:1 23800:1 23802:1 23846:1 23924:1
24473:1 24695:1 24774:3 24851:1 24875:1
25307:1 25311:1 25548:1 26007:1 26081:1
26240:1 26242:3 26252:1 26284:1 26675:1
26761:1 26791:1 26792:1 26805:1 26987:1
27242:1 27352:1 27567:1 27568:1 27571:1
27641:2 27744:1 27861:1 27999:1 28124:1
28307:1 28456:1 29057:1 29236:1 29261:1
29393:1 29601:1 29648:1 29657:1 29805:1
30016:1 30017:1 30040:2 30042:1 30051:1
30075:1 30079:1 30582:1 30583:2 30584:1
30773:1 30977:1 31049:2 31054:1 31078:1
31363:1 31448:1 31848:1 32325:1 32777:1
33322:1 33679:1 33974:1 35020:1 45316:3
47252:1 47940:1 48217:1 48236:1 48238:1
48256:1
4453 4:1 22:1 52:1 2062:1 2523:1 3877:1 5441:1
5453:1 5456:1 9090:1 13881:1 14794:1 14805:1
15661:1 17607:1 19039:1 19089:1 19097:1
20935:1 22747:1 31855:1 32231:1 32489:1
33322:1 33679:1 33974:1 44249:1 44250:1
44251:1 44252:1 44253:1 47243:1 47602:1
48220:1 48235:1
4853 16:1 34:1 1132:1 2561:1 5447:1 5456:1
8520:1 9212:1 10069:1 15039:1 17628:1 31463:1
46535:1 47251:1 48232:1 48236:1
3920 16:1 34:1 475:1 2553:1 5447:1 5456:1
8421:1 9725:1 9930:1 18309:1 26850:1 27658:1
27659:1 28010:1 28218:1 31463:1 44271:1
47252:1 48232:1 48236:1
4532 4:1 22:1 613:1 2132:1 2379:1 5376:1
5441:1 5453:1 5456:1 9179:1 12097:3 16007:1
17277:1 18616:1 21241:3 31449:1 31830:1
32302:1 32578:1 33565:1 33948:1 34102:1
34558:1 37689:1 39982:1 39983:1 39984:1
47243:1 47897:1 48220:1 48236:1 48239:1
654 4:1 22:1 809:1 1915:1 2553:1 4689:1 5441:1
5453:1 5456:1 9247:1 10952:1 12158:1 15040:1
20128:1 20865:1 27023:1 31454:1 31716:1
32219:1 32543:1 33322:1 33692:1 33974:1
47252:1 48015:1 48219:1 48236:1 48243:1
1122 11:1 29:1 662:1 1279:1 2357:1 5315:1
5441:1 5453:1 5456:1 9766:1 10792:1 16208:1
17768:1 18219:1 19877:1 20474:1 20798:1
23194:1 23490:1 23736:1 23737:1 23800:1
23924:1 24774:2 25856:2 25868:1 25872:1
26077:1 26081:1 26234:1 26242:1 26251:1
26769:1 26788:1 27043:1 27064:1 27087:1
27234:1 27641:1 27744:1 27837:1 27960:1
29261:1 29655:1 29675:1 29693:1 30008:1
30009:1 30975:1 31059:1 31221:1 31454:1
31926:1 32209:1 32435:1 33062:1 33917:1
34043:1 36389:1 47252:1 47929:1 48227:1
48236:1 48243:1 48256:1
135 6:1 24:1 1145:1 1214:1 2594:1 3333:1
5441:1 5453:1 5456:1 9466:1 13540:1 14904:1
21386:1 31718:1 32215:1 32538:1 33322:1
33679:1 33974:1 35212:1 47110:1 47252:1
48205:1 48222:1 48236:1 48246:1 48256:1
48435:1
4105 6:1 24:1 158:1 1977:1 2408:1 5411:1
5441:1 5454:1 5456:1 9319:1 47300:1 48222:1
2963 1:1 19:1 1144:1 1704:1 2423:1 3548:1
5441:1 5453:1 5456:1 9467:1 10712:1 12474:1
15422:1 16305:1 16549:1 18210:1 20427:1
22672:1 31111:1 31449:1 31820:1 32310:1
32693:1 33514:1 33679:1 33973:1 34315:1
46691:2 47252:1 48204:1 48217:1 48236:1
48239:1 48256:1
220 12:1 30:1 535:1 1841:1 2583:1 2877:1
5441:1 5453:1 5456:1 8831:1 9957:1 12466:2
16396:1 20798:1 21364:1 25864:1 26612:1
26619:1 27641:1 29486:1 30183:1 30879:1
31056:1 31459:1 31729:1 32379:1 32590:1
33322:1 33679:1 33974:1 36224:1 47252:1
47859:1 48228:1 48236:1 48249:1 48256:1
1216 1:1 19:1 315:1 1307:1 2440:1 4979:1
5441:1 5453:1 5456:1 8414:1 9251:1 12221:1
12455:1 16574:1 17611:1 18453:1 18591:1
24720:1 26158:1 31448:1 31914:1 32370:1
32430:1 33322:1 33679:1 33974:1 45913:1
47243:1 47732:1 48217:1 48236:1 48238:1
48256:1
1006 1:1 19:1 946:1 1794:1 2458:1 4785:1
5449:1 5453:1 5456:1 7727:1 8736:1 10400:1
4538 3:1 21:1 613:1 2132:1 2412:1 3665:1
5441:1 5453:1 5456:1 9179:1 22963:9 24774:4
25946:5 26158:4 27418:3 27734:1 27801:1
27823:2 28010:4 29258:3 30022:4 30151:1
30491:2 30631:4 31451:1 31893:1 32377:1
32430:1 33322:1 33679:1 33974:1 36594:1
46688:4 47243:1 47897:1 48219:1 48236:1
48240:1
3536 16:1 34:1 631:1 1816:1 2561:1 3739:1
5441:1 5453:1 5456:1 8184:1 9378:1 11668:1
12993:2 13881:2 15044:1 17780:2 18024:2
21773:2 23355:1 24048:2 24774:2 25631:1
27866:2 28020:2 30655:2 31464:1 31835:1
32245:1 32508:1 33322:1 33679:1 33974:1
35269:1 47252:1 47452:1 48217:1 48235:1
48256:1
2510 13:1 31:1 135:1 1600:1 2516:1 2933:1
5441:1 5453:1 5456:1 9285:1 13339:1 21906:1
31461:1 31714:1 32244:1 32705:1 33292:1
33774:1 34146:1 42907:1 47252:1 48217:1
48235:1 48238:1 48256:1
3186 5:1 23:1 244:1 1796:1 2553:1 4600:1
5450:1 5453:1 5456:1 7141:1 8736:1 10401:1
2571 4:1 22:1 166:1 1556:1 2443:1 5267:1
5441:1 5453:1 5456:1 9025:1 10050:1 10959:1
12474:1 12482:1 13461:1 18219:1 22075:1
22577:1 31449:1 31851:1 32258:1 32736:1
33322:1 33679:1 33974:1 36400:1 47251:1
47661:1 48219:1 48236:1 48239:1
1006 7:1 25:1 907:1 1802:1 2523:1 4163:1
5449:1 5453:1 5456:1 7857:1 8736:1 10400:1
1006 3:1 21:1 907:1 1802:1 2523:1 4165:1
5449:1 5453:1 5456:1 7852:1 8736:1 10400:1
2008 3:1 21:1 878:1 1421:1 2394:1 3078:1
5441:1 5453:1 5456:1 6008:1 9877:1 11985:1
12158:1 12159:1 12428:1 12881:1 13364:1
14386:1 15213:1 15579:2 16622:1 17628:2
17745:1 18753:1 20984:1 22229:1 31448:1
31692:1 32231:1 32482:1 33322:1 33679:1
33974:1 45524:1 47252:1 48053:1 48219:1
48236:1 48238:1 48256:1
3049 3:1 21:1 252:1 2387:1 5447:1 5456:1
9294:1 9930:1 14774:1 18034:1 20421:1 21729:1
26744:1 26822:1 27107:1 31452:1 43066:1
47251:1 48217:1 48235:1 48238:1
3115 2:1 20:1 371:1 1751:1 2409:1 5108:1
5441:1 5453:1 5456:1 8434:1 9368:1 10367:1
11764:1 12207:1 17611:1 19615:1 20089:1
31646:1 32219:1 32536:1 33048:1 33679:1
33974:1 47251:1 47761:1 48218:1 48236:1
48240:1 48256:1
5121 4:1 22:1 223:1 2434:1 5447:1 5456:1
5791:1 9293:1 9930:1 10959:3 11700:3 12268:3
12441:3 12484:3 12879:3 12969:6 22577:3
22898:1 23303:3 23422:1 23578:1 23593:1
23613:2 23742:1 23896:1 23924:1 23944:1
23984:1 23986:1 23991:1 24046:1 24140:1
24592:2 24600:1 24685:1 25089:1 25873:1
26537:1 26959:1 27015:1 27650:1 28654:2
28794:1 29432:1 29471:1 30794:1 31036:1
31183:1 31198:1 31199:1 31428:1 31429:1
31449:1 34891:1 47251:1 48220:1 48236:1
48239:1
3867 12:1 30:1 199:1 1800:1 2326:1 3648:1
5449:1 5453:1 5456:1 8089:1 8736:1 10400:1
315 4:1 22:1 308:1 2482:1 5447:1 5456:1 9127:1
9930:1 12276:1 13801:1 16441:3 17716:1 22759:2
25421:1 25430:1 25946:1 26102:1 27884:1
29486:1 30675:1 30749:1 31453:1 34810:1
47251:1 48220:1 48236:1 48242:1 48679:1
1860 8:1 26:1 838:1 2204:1 2523:1 3754:1
5441:1 5453:1 5456:1 9000:1 10377:1 12682:1
18236:1 24925:1 26204:1 27714:1 31458:1
31537:1 32231:1 32484:1 47251:1 48032:1
48224:1 48236:1 48247:1 48256:1
3805 7:1 25:1 418:1 1911:1 2357:1 5315:1
5441:1 5453:1 5456:1 9150:1 10769:1 14787:1
15392:1 20681:1 31818:1 32215:1 32538:1
33322:1 33679:1 33974:1 34952:1 47108:1
47252:1 47792:1 48223:1 48236:1 48246:1
48256:1 48629:1
3257 14:1 32:1 927:1 1860:1 2561:1 3695:1
5441:1 5454:1 5456:1 9501:1 47531:1 48217:1
3061 12:1 30:1 252:1 1735:1 2505:1 3101:1
5441:1 5453:1 5456:1 9294:1 14774:3 15144:19
16797:19 18034:3 18035:19 19480:19 20421:3
20430:19 21729:3 26744:1 26822:1 27107:1
31454:1 31917:1 32237:1 32483:1 33025:1
33709:1 34118:1 43066:3 43068:19 47251:1
47704:1 48217:1 48235:1 48238:1 48256:1
3186 15:1 33:1 907:1 1802:1 2523:1 4021:1
5449:1 5453:1 5456:1 7153:1 8736:1 10401:1
1006 2:1 20:1 946:1 1794:1 2328:1 3017:1
5449:1 5453:1 5456:1 7689:1 8736:1 10400:1
4648 9:1 27:1 613:1 2132:1 2491:1 3766:1
5441:1 5453:1 5456:1 9179:1 12097:11 21241:11
31452:1 31830:1 32302:1 32578:1 32897:1
33824:1 33970:1 34607:1 38123:1 38349:1
38350:1 38351:1 38352:1 38353:1 38446:1
39682:1 40229:1 40230:1 41090:1 47243:1
47897:1 48225:1 48236:1 48241:1
1337 1:1 19:1 656:1 1982:1 2553:1 4491:1
5441:1 5453:1 5456:1 8754:1 11920:1 15837:1
31450:1 32021:1 32231:1 32442:1 33181:1
33679:1 33974:1 35507:1 42423:1 47246:1
47458:1
807 5:1 23:1 270:1 1192:1 2511:1 2967:1 5441:1
5454:1 5456:1 9665:1 47346:1 48220:1
259 7:1 25:1 842:1 1280:1 2583:1 4734:1 5441:1
5454:1 5456:1 9064:1 47511:1 48223:1
403 11:1 29:1 1032:1 2520:1 5447:1 5456:1
8611:1 9663:1 9930:1 15316:2 17110:2 23223:1
24774:2 26078:1 28437:1 29612:1 29977:1
31460:1 46472:2 47243:1 48227:1 48236:1
48249:1
3186 8:1 26:1 244:1 1796:1 2479:1 5168:1
5449:1 5453:1 5456:1 6659:1 8736:1 10400:1
2812 13:1 31:1 110:1 2530:1 5447:1 5456:1
9666:1 10433:1 11057:1 11077:2 11184:1 11225:1
11276:1 11288:1 11291:1 11295:1 11319:3
11326:1 11371:2 11433:1 12364:3 12380:2
12392:1 12506:1 12979:1 13088:1 13089:1
13090:4 13093:2 13115:1 13141:1 13159:1
13174:1 13179:1 13225:1 13228:1 13287:1
13534:1 13684:1 13749:2 13809:1 13810:1
13931:1 13936:1 13937:1 13939:1 13990:1
14017:1 14018:1 14074:5 14081:1 14143:60
14283:1 14381:1 14414:4 14433:1 14437:1
14501:2 14568:1 14588:5 14889:1 14964:1
15106:1 15174:1 15225:1 15226:2 15483:1
15520:1 15623:1 15681:1 15919:1 16057:1
16441:1 16442:1 16607:2 16614:1 16615:1
16618:1 16642:1 16643:4 16676:1 16706:1
16766:1 16803:1 16876:3 16877:1 16891:1
16917:1 17181:3 17202:59 17204:1 17249:1
17458:1 17566:4 17620:2 17768:1 17818:1
17823:1 17940:1 18095:1 18099:1 18157:3
18197:60 18205:1 18276:1 18334:1 18507:1
18530:1 18532:1 18654:60 18874:1 19026:1
19080:1 19127:1 19255:1 19307:1 19341:1
19348:1 19477:1 19506:1 19540:1 19547:1
19548:1 19567:1 19571:1 19589:2 19590:1
19650:1 19867:1 19997:1 20362:2 20637:1
20650:1 20657:1 20662:2 20967:1 21044:1
21151:3 21158:2 21261:1 21537:1 21922:1
22084:2 22235:3 22247:1 22508:1 22840:1
22844:1 31451:1 46074:1 46114:1 46115:1
46116:1 46117:1 46118:1 46125:1 46144:1
46145:1 46146:1 46147:1 46148:1 46149:1
46150:1 46151:1 46152:1 46153:2 46154:1
46155:1 46157:1 46159:1 46160:1 46161:1
46162:1 46163:1 46164:1 46165:1 46166:2
46168:1 46169:2 46170:2 46171:1 46172:1
46173:1 46174:1 46175:1 46176:1 46178:1
46179:3 46180:1 46181:1 46182:1 46183:1
46184:2 46185:1 46186:4 46187:1 46188:1
46189:1 46194:1 47251:1 48229:1 48236:1
48240:1 48461:1
3539 15:1 33:1 631:1 1816:1 2547:1 2897:1
5441:1 5453:1 5456:1 6059:1 9378:1 12311:1
12329:1 12992:1 14978:1 17751:1 18979:1
19682:1 21158:1 21248:1 23611:1 23622:1
24047:1 25600:1 27836:1 28670:1 29200:1
30200:1 30242:1 31463:1 31835:1 32245:1
32508:1 33271:1 33692:1 34096:1 35307:1
47252:1 47452:1 48217:1 48235:1 48256:1
3186 2:1 20:1 946:1 1794:1 2324:1 3106:1
5449:1 5453:1 5456:1 6414:1 8736:1 10400:1
4503 2:1 20:1 613:1 2132:1 2373:1 2905:1
5441:1 5453:1 5456:1 9179:1 22963:2 23143:2
24774:2 26158:2 26435:2 27735:2 28010:2
30022:2 31450:1 31893:1 32377:1 32430:1
33322:1 33679:1 33974:1 36551:1 46688:2
47243:1 47897:1 48218:1 48236:1 48239:1
1006 2:1 20:1 946:1 1794:1 2370:1 3451:1
5449:1 5453:1 5456:1 6485:1 8736:1 10400:1
2272 12:1 30:1 477:1 1479:1 2553:1 4708:1
5441:1 5453:1 5456:1 9392:1 20108:1 22717:1
31460:1 31835:1 32245:1 32508:1 33312:1
33824:1 33970:1 34841:1 47251:1 47401:1
48228:1 48235:1 48250:1 48256:1 48666:1
4019 4:1 22:1 907:1 1802:1 2481:1 4333:1
5449:1 5453:1 5456:1 7300:1 8736:1 10400:1
3590 3:1 21:1 93:1 2258:1 5447:1 5456:1 9196:1
10736:1 11120:1 11199:1 12470:2 12471:1
12472:1 12474:2 12482:1 12497:1 12533:1
12627:1 12741:1 12824:1 13084:1 13515:1
13881:2 13897:1 14303:1 15343:1 16147:1
16440:1 17035:1 17120:1 17129:1 17132:1
17136:1 17157:1 17174:1 17481:1 17571:1
17725:1 17806:1 18020:1 18219:2 18435:1
18482:1 18936:1 18943:1 20444:1 20459:1
20460:1 20463:1 20779:1 21132:1 21335:1
21388:1 21676:1 21925:1 22187:1 22199:1
22319:1 22376:1 22573:1 22608:1 23720:1
25316:1 29262:1 31449:1 47252:1 48219:1
48236:1 48239:1
4407 10:1 28:1 907:1 1802:1 2481:1 4371:1
5450:1 5453:1 5456:1 7913:1 8736:1 10401:1
1671 4:1 22:1 656:1 1982:1 2562:1 5187:1
5441:1 5453:1 5456:1 8754:1 15007:1 19062:1
19668:1 20077:1 31451:1 32021:1 32231:1
32442:1 33456:1 33804:1 34140:1 35640:1
41419:1 42217:1 47246:1 47458:1
1006 10:1 28:1 946:1 1794:1 2324:1 3106:1
5449:1 5453:1 5456:1 6473:1 8736:1 10401:1
4945 9:1 27:1 613:1 2132:1 2481:1 4202:1
5441:1 5453:1 5456:1 9179:1 12097:7 21241:7
31452:1 31830:1 32302:1 32578:1 32897:1
33824:1 33970:1 34707:1 37896:1 39657:1
40294:1 40383:1 40881:1 41064:1 41178:1
47243:1 47897:1 48225:1 48236:1 48241:1
4312 16:1 34:1 963:1 2576:1 5447:1 5456:1
8981:1 10069:1 15894:1 16755:1 17772:1 17979:1
20629:1 23784:1 24049:1 26233:2 26268:1
26269:1 26338:1 26341:1 26428:1 26581:1
26798:1 26967:1 27641:1 27716:1 28309:1
29078:1 29393:1 29834:1 30463:1 31463:1
47252:1 48232:1 48236:1
2694 16:1 34:1 244:1 1796:1 2378:1 5353:1
5449:1 5453:1 5456:1 6870:1 8736:1 10400:1
3747 13:1 31:1 46:1 1910:1 2328:1 3020:1
5441:1 5453:1 5456:1 9641:1 10494:1 10972:1
11183:1 11433:1 11689:1 11906:2 12179:2
12544:1 12690:2 13570:1 13835:1 13873:1
13881:3 13898:2 13903:2 14573:1 14921:3
15054:1 15146:1 15507:1 15596:3 15787:9
16218:1 16220:1 16270:2 16442:3 17174:1
17210:1 17335:1 17422:5 17499:1 17722:1
17745:1 17895:1 18023:1 18138:3 18436:5
18547:6 18554:1 18555:1 19112:3 19550:2
19952:2 20745:1 21648:1 21655:1 22157:2
22358:1 22768:3 31459:1 31965:1 32231:1
32454:1 33322:1 33679:1 33974:1 34418:1
47243:1 47598:1 48230:1 48236:1 48249:1
48256:1
1006 12:1 30:1 244:1 1796:1 2481:1 4347:1
5449:1 5453:1 5456:1 7176:1 8736:1 10400:1
248 6:1 24:1 613:1 2132:1 2567:1 3150:1 5441:1
5453:1 5456:1 9179:1 22963:4 23857:2 24738:4
24774:6 25421:4 25901:2 25904:4 25906:2
26158:4 26388:4 27884:4 28010:4 30022:4
30151:4 31366:2 31454:1 31893:1 32377:1
32430:1 32882:1 33679:1 33974:1 36536:1
46364:1 46688:3 47243:1 47897:1 48222:1
48236:1 48243:1
2398 10:1 28:1 531:1 1527:1 2397:1 5065:1
5441:1 5454:1 5456:1 9713:1 47415:1 48226:1
2157 2:1 20:1 454:1 2103:1 2481:1 4306:1
5451:1 5453:1 5456:1 7939:1 8736:1 10400:1
4858 12:1 30:1 122:1 2126:1 2553:1 4689:1
5441:1 5453:1 5456:1 9635:1 10823:1 10959:1
12466:1 12474:1 12482:1 13461:1 18219:2
26233:6 27100:6 31449:1 32129:1 32375:1
32644:1 33399:1 33679:1 33974:1 34800:1
47251:1 47641:1 48228:1 48236:1 48239:1
48256:1
4611 6:1 24:1 613:1 2132:1 2472:1 4949:1
5441:1 5453:1 5456:1 9179:1 23234:5 26183:5
27810:5 28395:5 28398:5 31452:1 31893:1
32377:1 32430:1 32874:1 33679:1 33974:1
35893:1 46687:1 46699:1 46701:1 46887:1
46980:1 47243:1 47897:1 48222:1 48236:1
48241:1
2748 2:1 20:1 893:1 1709:1 2525:1 3509:1
5441:1 5453:1 5456:1 9718:1 10959:2 12474:1
13580:1 18219:2 19886:1 20476:1 22075:1
22577:1 22966:1 23074:1 23194:1 23238:3
23262:2 23725:1 23800:1 23802:1 23846:1
23924:5 24353:1 24431:1 24475:1 24774:4
25694:1 25858:1 25859:1 25862:1 25865:1
25982:1 26070:1 26189:1 26233:1 26242:4
26250:1 26265:1 26269:1 26273:1 26431:1
26445:2 26471:2 26472:1 26715:3 26733:2
26775:1 26812:1 26835:1 27095:1 27171:1
27485:1 27629:1 27630:1 27631:1 27641:2
27744:1 27749:1 27843:1 27884:3 28086:2
28456:2 28548:1 28603:1 28764:1 28812:1
29261:1 29303:1 29306:1 29313:1 29399:1
29582:2 29646:1 29659:3 29673:1 29854:1
30014:1 30119:1 30652:2 30986:1 31053:2
31059:1 31060:1 31116:1 31221:1 31268:1
31289:1 31449:1 32154:1 32298:1 32614:1
33322:1 33679:1 33974:1 47251:1 48063:1
48218:1 48236:1 48239:1 48256:1
3867 10:1 28:1 199:1 1800:1 2467:1 5295:1
5449:1 5453:1 5456:1 8077:1 8736:1 10400:1
4630 1:1 19:1 613:1 2132:1 2343:1 3620:1
5441:1 5453:1 5456:1 9179:1 22963:2 24774:3
26158:3 27145:6 27801:3 27823:3 28010:3
30022:3 30151:3 30629:1 30630:1 30631:1
31448:1 31893:1 32377:1 32430:1 33371:1
33679:1 33974:1 36620:1 46359:1 46688:1
46837:1 47243:1 47897:1 48217:1 48236:1
48238:1
725 6:1 24:1 841:1 1241:1 2583:1 4745:1 5441:1
5453:1 5456:1 9925:1 10567:1 11566:1 13340:1
31456:1 32190:1 32293:1 32739:1 33301:1
33692:1 33974:1 47252:1 47510:1 48217:1
48235:1 48238:1 48256:1
670 5:1 23:1 1071:1 1945:1 2583:1 2795:1
5441:1 5453:1 5456:1 8164:1 8837:1 15825:1
16683:1 18890:2 23390:1 23622:1 24482:1
24642:1 26243:1 26250:1 29714:1 30041:1
30804:1 30863:1 31355:1 31453:1 31938:1
32348:1 32621:1 33322:1 33679:1 33974:1
47252:1 48160:1 48221:1 48236:1 48242:1
693 1:1 19:1 927:1 1580:1 2529:1 2630:1 5441:1
5453:1 5456:1 6128:1 9501:1 15565:1 20356:1
21586:1 31449:1 31494:1 32240:1 32572:1
33116:1 33824:1 33970:1 36174:1 47252:1
48086:1 48217:1 48235:1
4679 8:1 26:1 613:1 2132:1 2558:1 5153:1
5441:1 5453:1 5456:1 9179:1 12097:8 13519:1
13881:1 15769:1 16007:6 17277:6 18616:6
21241:8 22016:1 31449:1 31830:1 32302:1
32578:1 33228:1 33873:1 34254:1 34646:1
37233:1 37235:1 37494:1 37495:1 37496:1
37497:1 37903:1 37918:1 38968:1 38985:1
39240:1 39242:1 39761:1 39938:1 47243:1
47897:1 48224:1 48236:1 48239:1
2724 4:1 22:1 432:1 2034:1 2520:1 4433:1
5441:1 5453:1 5456:1 5480:1 8827:1 12586:1
12785:1 13881:1 15609:1 20933:1 22196:1
31451:1 31515:1 32231:1 32480:1 33271:1
33679:1 33974:1 47251:1 47798:1 48219:1
48236:1 48240:1 48256:1
4571 4:1 22:1 613:1 2132:1 2463:1 5149:1
5441:1 5453:1 5456:1 9179:1 22963:9 24774:4
25946:5 26158:4 27734:1 27801:1 27823:2
28010:4 29290:3 30022:4 30151:1 30491:2
30631:4 31450:1 31893:1 32377:1 32430:1
33322:1 33679:1 33974:1 36608:1 46688:4
47243:1 47897:1 48219:1 48236:1 48239:1
3867 14:1 32:1 199:1 1800:1 2334:1 5129:1
5449:1 5453:1 5456:1 7234:1 8736:1 10400:1
3186 5:1 23:1 244:1 1796:1 2481:1 4348:1
5449:1 5453:1 5456:1 6630:1 8736:1 10401:1
4019 1:1 19:1 907:1 1802:1 2576:1 4911:1
5449:1 5453:1 5456:1 7283:1 8736:1 10400:1
85 10:1 28:1 796:1 1427:1 2520:1 4415:1 5441:1
5454:1 5456:1 8975:1 47496:1 48226:1
4240 7:1 25:1 860:1 2068:1 2586:1 2804:1
5441:1 5453:1 5456:1 9871:1 10825:1 12158:1
12992:1 13436:1 15252:1 15684:1 15833:1
17786:1 19677:2 20689:1 20697:1 21555:1
24381:1 24457:1 25545:1 25688:1 29259:1
31457:1 31858:1 32313:1 32693:1 33322:1
33679:1 33974:1 37000:1 45989:1 46098:1
46923:1 47251:1 47517:1 48223:1 48236:1
48246:1 48256:1
44 6:1 24:1 327:1 1806:1 2583:1 2823:1 5441:1
5453:1 5456:1 5943:1 9074:1 10221:1 13867:1
24456:1 27175:1 29483:1 31456:1 32150:1
32375:1 32645:1 33645:1 33679:1 33974:1
47251:1 47736:1 48222:1 48236:1 48246:1
3418 2:1 20:1 680:1 1825:1 2553:1 4824:1
5441:1 5453:1 5456:1 5872:1 8934:1 11111:1
12466:2 12482:1 13461:1 13580:2 15111:1
15758:1 18219:2 22218:1 22934:1 22947:1
23194:1 23243:1 23649:1 23743:1 23770:1
23800:1 23802:1 23846:1 23924:1 24473:1
24695:1 24774:3 24851:1 24875:1 25307:1
25311:1 25548:1 26007:1 26081:1 26240:1
26242:3 26252:1 26284:1 26675:1 26761:1
26791:1 26792:1 26805:1 26987:1 27242:1
27352:1 27567:1 27568:1 27571:1 27641:2
27744:1 27861:1 27999:1 28124:1 28307:1
28456:1 29057:1 29236:1 29261:1 29393:1
29601:1 29648:1 29657:1 29805:1 30016:1
30017:1 30040:2 30042:1 30051:1 30075:1
30079:1 30582:1 30583:2 30584:1 30773:1
30977:1 31049:2 31054:1 31078:1 31363:1
31449:1 31848:1 32325:1 32777:1 33322:1
33679:1 33974:1 35117:1 45316:2 45317:4
47252:1 47940:1 48217:1 48236:1 48238:1
48256:1
1501 6:1 24:1 343:1 1337:1 2473:1 5028:1
5441:1 5453:1 5456:1 5506:1 8800:1 14673:1
17847:1 22443:1 23246:1 24233:1 24774:1
25894:1 29694:1 29762:1 30216:1 31541:1
32237:1 32477:1 33309:1 33878:1 34269:1
47243:1 47745:1 48222:1 48236:1 48245:1
48256:1
3092 5:1 23:1 685:1 1693:1 2586:1 2792:1
5441:1 5453:1 5456:1 9735:1 13113:2 16709:2
17215:2 20513:2 22577:2 23211:2 24571:2
25688:2 25876:2 27884:2 31452:1 31558:1
32231:1 32488:1 33322:1 33692:1 33974:1
35278:1 46438:1 46439:1 47251:1 47943:1
48221:1 48236:1 48241:1 48256:1
4327 15:1 33:1 312:1 1235:1 2576:1 5012:1
5441:1 5453:1 5456:1 6294:1 9301:1 11003:1
11805:2 11850:1 11872:1 11897:1 11934:1
12047:2 12148:1 12265:1 12742:1 12863:1
13783:2 15373:1 16943:1 17806:1 18474:1
18513:1 18835:1 19382:1 19479:2 19698:1
20366:1 20875:1 20914:1 20960:2 21087:1
22550:1 22577:1 29422:1 30056:1 31223:2
31448:1 32146:1 32237:1 32452:1 33322:1
33679:1 33974:1 45718:1 45720:1 45728:1
45729:1 45749:1 45757:1 46384:1 46998:1
47252:1 47731:1 48231:1 48236:1 48238:1
48256:1
3057 2:1 20:1 252:1 1735:1 2384:1 3520:1
5441:1 5453:1 5456:1 9294:1 15144:1 16797:1
18035:1 19480:1 20430:1 26744:1 26822:1
27107:1 31452:1 31917:1 32237:1 32483:1
33119:1 33906:1 34147:1 43068:1 47251:1
47704:1 48217:1 48235:1 48238:1 48256:1
280 8:1 26:1 483:1 1767:1 2523:1 3153:1 5441:1
5453:1 5456:1 9412:1 10959:1 11065:1 13580:1
15334:2 17110:1 18219:1 20474:2 20607:1
22577:1 23622:1 25982:2 29306:1 29442:1
31457:1 31888:1 32319:1 32533:1 33322:1
33679:1 33974:1 47251:1 47825:1 48224:1
48236:1 48247:1
456 8:1 26:1 477:1 1479:1 2594:1 3378:1 5441:1
5453:1 5456:1 9392:1 12378:1 13434:1 14783:1
15093:1 15352:1 15770:1 17416:1 17795:1
18880:1 21100:1 31448:1 31835:1 32245:1
32508:1 33322:1 33692:1 33974:1 35961:1
47251:1 47401:1 48224:1 48236:1 48247:1
48256:1
2819 1:1 19:1 110:1 1692:1 2523:1 3877:1
5441:1 5453:1 5456:1 9666:1 12600:1 14017:1
16612:1 16706:1 18191:2 18762:1 19436:1
20650:1 21031:1 21586:1 31448:1 31598:1
32387:1 32591:1 33209:1 33846:1 33970:1
46814:1 47044:1 47251:1 47635:1 48217:1
48235:1 48238:1
3186 2:1 20:1 244:1 1796:1 2523:1 4097:1
5449:1 5453:1 5456:1 6817:1 8736:1 10401:1
1006 7:1 25:1 454:1 2103:1 2553:1 4608:1
5451:1 5453:1 5456:1 7441:1 8736:1 10400:1
3891 4:1 22:1 46:1 1910:1 2553:1 4689:1 5441:1
5453:1 5456:1 9641:1 10505:1 11230:2 11913:2
12349:3 14861:3 15791:1 21572:1 23861:1
25372:2 31453:1 31965:1 32231:1 32454:1
33322:1 33679:1 33974:1 34422:1 47243:1
47598:1 48220:1 48236:1 48242:1 48256:1
1006 2:1 20:1 946:1 1794:1 2546:1 4887:1
5449:1 5453:1 5456:1 6567:1 8736:1 10400:1
3566 9:1 27:1 621:1 2055:1 2576:1 4904:1
5441:1 5453:1 5456:1 8381:1 8756:1 11268:1
11776:1 11830:1 12055:1 17506:1 17708:1
19518:1 32199:1 32398:1 32518:1 33322:1
33679:1 33998:1 44062:1 47246:1 47900:1
48225:1 48236:1 48248:1 48256:1
4557 4:1 22:1 613:1 2132:1 2394:1 3078:1
5441:1 5453:1 5456:1 9179:1 22963:1 23857:1
24774:2 25099:1 25101:1 26158:1 26855:1
27801:1 27847:1 28010:1 29999:1 30022:1
30151:1 31454:1 31893:1 32377:1 32430:1
33271:1 33679:1 33974:1 36480:1 46688:1
47243:1 47897:1 48219:1 48236:1 48243:1
4072 13:1 31:1 104:1 2024:1 2485:1 3464:1
5441:1 5453:1 5456:1 5460:1 8802:1 10886:1
14698:1 16393:1 18528:1 18835:1 21101:1
31461:1 31588:1 32336:1 32627:1 33271:1
33679:1 33974:1 34278:1 47243:1 47632:1
48229:1 48236:1 48256:1
158 5:1 23:1 976:1 1812:1 2482:1 2791:1 5441:1
5453:1 5456:1 9556:1 14155:3 18460:3 31452:1
31798:1 32219:1 32546:1 33322:1 33692:1
33973:1 37157:1 37159:1 37161:1 47252:1
48107:1 48220:1 48236:1 48241:1 48256:1
1124 10:1 28:1 662:1 1279:1 2324:1 3304:1
5441:1 5453:1 5456:1 9766:1 10792:1 14689:2
16208:1 17768:1 18219:1 18901:2 20474:1
20605:2 20798:1 22800:2 23194:1 23490:1
23736:1 23737:1 23800:1 23924:1 24774:2
25856:2 25868:1 25872:1 26077:1 26081:1
26234:1 26242:1 26251:1 26769:1 26788:1
27043:1 27064:1 27087:1 27234:1 27641:1
27744:1 27837:1 27960:1 29261:1 29655:1
29675:1 29693:1 30008:1 30009:1 30975:1
31059:1 31221:1 31454:1 31926:1 32209:1
32435:1 33322:1 33679:1 33974:1 36396:1
47252:1 47929:1 48226:1 48236:1 48243:1
48256:1
930 13:1 31:1 270:1 1192:1 2553:1 4529:1
5441:1 5454:1 5456:1 9756:1 47346:1 48230:1
4237 12:1 30:1 853:1 1995:1 2515:1 2919:1
5441:1 5453:1 5456:1 9571:1 20116:1 22963:1
32127:1 32231:1 32488:1 33322:1 33679:1
33974:1 36452:1 43207:2 47243:1 48041:1
48228:1
3672 11:1 29:1 425:1 1856:1 2491:1 3846:1
5441:1 5453:1 5456:1 9171:1 16369:1 17422:1
19837:1 20646:1 20910:1 21364:1 24722:2
29942:1 30424:1 30705:1 31448:1 31672:1
32231:1 32472:1 33322:1 33679:1 33974:1
47252:1 47796:1 48227:1 48236:1 48238:1
48256:1 48305:1
711 11:1 29:1 627:1 1418:1 2583:1 4742:1
5441:1 5453:1 5456:1 8167:1 8826:1 10805:1
10959:1 11794:1 11859:1 11863:1 12047:2
12077:1 12180:1 12203:2 12257:2 12258:1
12306:1 12694:1 13766:1 16729:1 17502:1
18621:1 19160:1 19248:1 19990:1 21074:2
31459:1 32059:1 32410:1 32518:1 33362:1
33679:1 33974:1 45885:1 45886:1 45891:1
46039:1 46784:1 46858:1 47184:1 47251:1
47904:1 48227:1 48236:1 48249:1 48256:1
48672:1
4702 2:1 20:1 613:1 2132:1 2553:1 4488:1
5441:1 5453:1 5456:1 9179:1 12097:1 21241:1
31450:1 31830:1 32302:1 32578:1 33322:1
33824:1 33970:1 34588:1 37940:1 47243:1
47897:1 48217:1 48236:1 48240:1
2649 4:1 22:1 262:1 2557:1 5447:1 5456:1
9653:1 9930:1 22366:1 22577:1 27767:1 27768:1
28305:1 29192:1 30635:1 30769:1 30848:1
31454:1 46934:1 47251:1 48220:1 48236:1
48243:1
2594 2:1 20:1 461:1 1563:1 2570:1 3448:1
5441:1 5453:1 5456:1 8876:1 10959:1 12466:1
12482:2 13461:1 18219:2 19877:1 21826:1
22075:2 22577:1 23047:1 23051:1 23194:1
23238:1 23262:1 23728:2 23800:1 23924:5
23969:1 24353:1 24473:1 24774:4 25694:1
25730:1 25795:2 25796:5 25867:1 26234:1
26235:1 26242:2 26269:1 26445:1 26471:1
26510:1 26516:1 26609:1 26729:1 26731:1
26733:2 26835:1 27174:1 27236:1 27262:1
27267:1 27271:1 27641:1 27648:1 27649:1
27745:2 28003:1 28086:2 28456:2 28606:1
28646:1 29072:1 29228:1 29261:1 29306:1
29390:1 29399:1 29487:1 29496:1 29659:3
29820:1 29834:1 29896:1 30004:1 30016:1
30119:1 30263:1 30327:1 30367:1 30578:1
30986:1 30989:1 31076:1 31221:1 31236:1
31448:1 31564:1 32275:1 32682:1 33294:1
33745:1 34133:1 37037:1 47251:1 47813:1
48218:1 48236:1 48238:1 48256:1
2588 7:1 25:1 461:1 1563:1 2570:1 3448:1
5441:1 5453:1 5456:1 8876:1 10959:1 11065:2
12482:2 13461:1 17110:2 18219:2 20607:2
21826:1 22075:2 22577:1 23047:1 23051:1
23158:1 23194:1 23238:1 23262:1 23728:2
23800:1 23924:5 23969:1 24353:1 24473:1
24774:4 25694:1 25730:1 25795:2 25796:5
25867:1 26098:1 26234:1 26235:1 26242:2
26269:1 26445:1 26471:1 26510:1 26516:1
26609:1 26729:1 26731:1 26733:1 26835:1
27174:1 27236:1 27262:1 27267:1 27271:1
27641:1 27648:1 27649:1 27745:2 28003:1
28086:1 28456:2 28606:1 28646:1 29072:1
29228:1 29261:1 29306:1 29390:1 29399:1
29487:1 29496:1 29659:3 29820:1 29834:1
29896:1 30004:1 30016:1 30263:1 30327:1
30367:1 30578:1 30986:1 30989:1 31076:1
31221:1 31236:1 31448:1 31564:1 32275:1
32682:1 33294:1 33745:1 34133:1 37043:1
47251:1 47813:1 48223:1 48236:1 48238:1
48256:1
3423 11:1 29:1 680:1 1825:1 2478:1 5112:1
5441:1 5453:1 5456:1 5973:1 8934:1 11112:3
12466:3 17113:3 20608:3 22934:1 22947:1
23194:1 23243:1 23649:1 23743:1 23770:1
23800:1 23802:1 23846:1 23924:1 24473:1
24695:1 24774:3 24851:1 24875:1 25307:1
25311:1 25548:1 26007:1 26081:1 26240:1
26242:3 26252:1 26284:1 26675:1 26761:1
26791:1 26792:1 26805:1 26987:1 27242:1
27352:1 27567:1 27568:1 27571:1 27641:2
27744:1 27861:1 27999:1 28124:1 28307:1
28456:1 29057:1 29236:1 29261:1 29393:1
29601:1 29648:1 29657:1 29805:1 30016:1
30017:1 30040:2 30042:1 30051:1 30075:1
30079:1 30582:1 30583:2 30584:1 30773:1
30977:1 31049:2 31054:1 31078:1 31363:1
31457:1 31848:1 32325:1 32777:1 33322:1
33679:1 33974:1 34974:1 45316:6 47252:1
47940:1 48227:1 48236:1 48246:1 48256:1
774 10:1 28:1 978:1 1220:1 2534:1 3584:1
5441:1 5453:1 5456:1 8938:1 14388:1 16314:1
19823:1 23147:2 23696:2 23711:2 24928:2
25360:2 26306:2 26584:2 26716:2 27106:2
27768:2 28548:2 29582:2 30766:2 31456:1
31587:1 32383:1 32645:1 33322:1 33679:1
33974:1 47251:1 48108:1 48226:1 48236:1
48245:1
5157 16:1 34:1 296:1 2174:1 2553:1 4689:1
5441:1 5453:1 5456:1 5519:1 9391:1 21104:1
21114:2 25221:1 25421:1 27884:1 29125:1
30606:1 30609:1 31463:1 31888:1 32400:1
32440:1 33312:1 33824:1 33970:1 34469:1
47251:1 47354:1 48217:1 48235:1 48303:1
3186 1:1 19:1 907:1 1802:1 2552:1 4873:1
5449:1 5453:1 5456:1 7568:1 8736:1 10401:1
468 16:1 34:1 953:1 2534:1 5447:1 5456:1
8509:1 9406:1 10888:1 12741:1 20138:1 20284:1
20987:1 21079:1 21631:1 24894:1 26651:1
26801:1 30041:1 30060:1 30094:1 31464:1
41273:1 46922:1 47252:1 48232:1 48236:1
48254:1 48392:1
3186 2:1 20:1 907:1 1802:1 2491:1 3840:1
5450:1 5453:1 5456:1 7450:1 8736:1 10401:1
1845 5:1 23:1 656:1 1982:1 2481:1 4274:1
5441:1 5453:1 5456:1 8754:1 12006:1 15967:1
17806:1 18652:1 19134:1 22126:1 22557:1
22584:1 31451:1 32021:1 32231:1 32442:1
33176:1 33679:1 33974:1 35477:1 42407:1
42524:1 42576:1 47246:1 47458:1
2600 2:1 20:1 810:1 1628:1 2418:1 5390:1
5441:1 5453:1 5456:1 8816:1 11207:1 12466:1
12469:1 12470:2 12477:1 12478:2 12699:1
12824:1 13881:2 14216:1 15332:1 15374:3
15375:1 16147:1 16440:1 16549:1 16921:1
17157:1 17725:1 17806:1 18219:1 18814:1
20427:1 20444:2 21194:1 21346:1 21388:1
21411:1 21676:1 21677:1 22111:1 22376:1
22573:1 22608:1 22778:1 31451:1 31842:1
32276:1 32740:1 33189:1 33679:1 33974:1
35808:1 47252:1 48016:1 48218:1 48236:1
48238:1
4402 7:1 25:1 199:1 1800:1 2479:1 5168:1
5449:1 5453:1 5456:1 6356:1 8736:1 10400:1
1006 14:1 32:1 244:1 1796:1 2553:1 4677:1
5449:1 5453:1 5456:1 6931:1 8736:1 10400:1
3935 5:1 23:1 418:1 1911:1 2567:1 3349:1
5441:1 5453:1 5456:1 9150:1 15323:1 15419:1
18242:1 18925:1 21490:1 31818:1 32215:1
32538:1 33357:1 33679:1 33974:1 35232:1
47109:1 47252:1 47792:1 48221:1 48236:1
48245:1 48256:1 48547:1
3148 7:1 25:1 55:1 1728:1 2548:1 3505:1 5441:1
5453:1 5456:1 8846:1 10006:1 12759:1 13459:1
14105:1 15712:1 16190:1 21683:1 22486:1
22510:1 22554:2 31454:1 32126:1 32231:1
32494:1 33452:1 33679:1 33974:1 44528:1
45859:1 46683:1 47251:1 47604:1 48223:1
48236:1 48243:1 48256:1
1307 2:1 20:1 315:1 1307:1 2497:1 4721:1
5441:1 5453:1 5456:1 8414:1 9251:1 12221:1
12455:1 16574:1 17611:1 18591:1 18592:1
24720:1 26158:1 31451:1 31914:1 32370:1
32430:1 33322:1 33679:1 33974:1 45914:1
47243:1 47732:1 48218:1 48236:1 48240:1
48256:1
3345 16:1 34:1 199:1 1800:1 2553:1 4638:1
5450:1 5453:1 5456:1 7065:1 8736:1 10401:1
3867 9:1 27:1 199:1 1800:1 2360:1 5357:1
5449:1 5453:1 5456:1 8078:1 8736:1 10400:1
3186 8:1 26:1 244:1 1796:1 2380:1 5422:1
5449:1 5453:1 5456:1 6676:1 8736:1 10400:1
3446 2:1 20:1 680:1 1825:1 2476:1 5311:1
5441:1 5453:1 5456:1 5787:1 8934:1 12466:6
12482:3 13461:3 13580:6 18219:6 22934:1
22947:1 23194:1 23243:1 23649:1 23743:1
23770:1 23800:1 23802:1 23846:1 23924:1
24473:1 24695:1 24774:3 24851:1 24875:1
25307:1 25311:1 25548:1 26007:1 26081:1
26240:1 26242:3 26252:1 26284:1 26675:1
26761:1 26791:1 26792:1 26805:1 26987:1
27242:1 27352:1 27567:1 27568:1 27571:1
27641:2 27744:1 27861:1 27999:1 28124:1
28307:1 28456:1 29057:1 29236:1 29261:1
29393:1 29601:1 29648:1 29657:1 29805:1
30016:1 30017:1 30040:2 30042:1 30051:1
30075:1 30079:1 30582:1 30583:2 30584:1
30773:1 30977:1 31049:2 31054:1 31078:1
31363:1 31448:1 31848:1 32325:1 32777:1
32914:1 33915:1 34266:1 34971:1 45316:6
47252:1 47940:1 48218:1 48236:1 48238:1
48256:1
3186 1:1 19:1 907:1 1802:1 2481:1 4322:1
5449:1 5453:1 5456:1 6968:1 8736:1 10401:1
2255 14:1 32:1 718:1 2473:1 5447:1 5456:1
9768:1 9930:1 11541:1 11909:1 12017:1 12642:1
12922:1 14275:1 14983:1 15153:1 15214:7
15356:1 17441:1 17527:1 17745:1 18475:1
18919:2 19144:1 21373:1 21374:1 31448:1
41284:1 42910:1 42911:1 42912:1 42913:1
42914:1 42915:1 47252:1 48230:1 48236:1
48238:1 48310:1
3906 3:1 21:1 46:1 1910:1 2481:1 4389:1 5441:1
5453:1 5456:1 9641:1 10499:1 12349:1 15791:1
21960:1 23861:1 25372:2 31452:1 31965:1
32231:1 32454:1 33271:1 33679:1 33974:1
34388:1 47243:1 47598:1 48219:1 48236:1
48241:1 48256:1
4672 10:1 28:1 613:1 2132:1 2400:1 5346:1
5441:1 5453:1 5456:1 9179:1 23234:14 23744:14
23748:14 26183:14 27799:14 31455:1 31893:1
32377:1 32430:1 33183:1 33679:1 33974:1
36090:1 45794:1 46687:3 46699:3 46701:2
46979:1 46980:3 47039:1 47243:1 47897:1
48227:1 48236:1 48244:1
1326 14:1 32:1 929:1 2433:1 5447:1 5456:1
9411:1 9930:1 12343:1 20111:1 25776:1 31462:1
42857:1 47251:1 48230:1 48236:1 48251:1
4982 2:1 20:1 613:1 2098:1 2523:1 3942:1
5441:1 5454:1 5456:1 9179:1 47443:1 48218:1
3879 7:1 25:1 984:1 1902:1 2561:1 3737:1
5441:1 5453:1 5456:1 8886:1 10196:1 15703:1
21069:1 31456:1 31922:1 32237:1 32442:1
32900:1 33692:1 33985:1 47252:1 48112:1
48217:1 48235:1 48238:1
5235 9:1 27:1 336:1 2223:1 2534:1 3587:1
5441:1 5453:1 5456:1 9154:1 13027:1 13881:1
14308:1 14726:1 14838:1 15982:1 16116:1
21119:1 31457:1 31555:1 32342:1 32632:1
33322:1 33692:1 33974:1 47252:1 47741:1
48223:1 48236:1 48245:1 48256:1
5254 1:1 19:1 249:1 2233:1 2406:1 5035:1
5441:1 5453:1 5456:1 9216:1 15427:1 17210:1
20935:1 22347:1 22348:1 23230:1 26267:1
26804:1 26820:1 27267:1 29600:1 30713:1
30714:1 30887:1 31126:1 31448:1 31849:1
32231:1 32485:1 33271:1 33703:1 33974:1
44370:1 44371:1 47252:1 47701:1 48217:1
48235:1 48238:1 48256:1
4995 7:1 25:1 613:1 2132:1 2491:1 3766:1
5441:1 5453:1 5456:1 9179:1 12097:7 21241:7
31450:1 31830:1 32302:1 32578:1 32897:1
33824:1 33970:1 34645:1 38923:1 38924:1
38927:1 39562:1 40114:1 40246:1 40655:1
47243:1 47897:1 48223:1 48236:1 48240:1
4725 5:1 23:1 613:1 2132:1 2386:1 4844:1
5441:1 5453:1 5456:1 9179:1 22963:2 23857:2
24774:4 26158:2 27734:2 28010:2 28040:2
28041:2 28043:2 28626:2 30022:2 31454:1
31893:1 32377:1 32430:1 33230:1 33837:1
34158:1 36513:1 46688:2 47243:1 47897:1
48221:1 48236:1 48243:1
826 1:1 19:1 703:1 2258:1 5447:1 5456:1 5905:1
9389:1 9930:1 11663:1 23143:1 31449:1 47243:1
48217:1 48235:1 48238:1
1684 5:1 23:1 656:1 1982:1 2491:1 4447:1
5441:1 5453:1 5456:1 8754:1 13287:1 13947:1
15477:1 17809:1 18276:1 19526:1 20572:1
31452:1 32021:1 32231:1 32442:1 33180:1
33824:1 33970:1 35650:1 42063:1 42070:1
42074:1 47246:1 47458:1
5426 6:1 24:1 1153:1 1909:1 2523:1 4188:1
5441:1 5453:1 5456:1 9266:1 10851:1 12336:2
15422:1 18418:1 31452:1 31964:1 32237:1
32454:1 33322:1 33679:1 33974:1 37103:1
37105:1 47243:1 48210:1 48222:1 48236:1
48241:1 48256:1
3617 6:1 24:1 868:1 2420:1 5447:1 5456:1
8909:1 10392:1 11861:1 12273:1 13580:1 18422:1
31457:1 47252:1 48222:1 48236:1
221 14:1 32:1 76:1 2171:1 2520:1 4415:1 5441:1
5454:1 5456:1 9835:1 47267:1 48230:1
5266 1:1 19:1 249:1 2233:1 2455:1 3529:1
5441:1 5453:1 5456:1 9216:1 12329:1 15427:1
17210:1 20935:1 22347:1 22348:1 22425:1
23230:1 26267:1 26804:1 26820:1 27267:1
29600:1 30713:1 30714:1 30887:1 31126:1
31448:1 31849:1 32231:1 32485:1 33322:1
33703:1 33974:1 44370:1 44371:1 44373:1
47252:1 47701:1 48217:1 48235:1 48238:1
48256:1
3186 15:1 33:1 244:1 1796:1 2523:1 3987:1
5450:1 5453:1 5456:1 7458:1 8736:1 10401:1
4201 6:1 24:1 490:1 1987:1 2397:1 5065:1
5441:1 5454:1 5456:1 9495:1 47402:1 48221:1
4361 2:1 20:1 432:1 2034:1 2523:1 4186:1
5441:1 5453:1 5456:1 5482:1 8827:1 12785:1
15609:1 31451:1 31515:1 32231:1 32480:1
33508:1 33679:1 33985:1 47251:1 47798:1
48218:1 48236:1 48240:1 48256:1
115 7:1 25:1 796:1 1452:1 2583:1 3334:1 5441:1
5453:1 5456:1 8997:1 10906:1 11065:1 16175:1
17110:1 18219:1 20476:1 20612:1 20798:1
31452:1 31621:1 32229:1 32438:1 33138:1
33679:1 33978:1 35152:1 47243:1 48010:1
48222:1 48236:1 48241:1 48256:1
3607 4:1 22:1 57:1 1845:1 2391:1 2958:1 5441:1
5453:1 5456:1 9898:1 11544:1 15615:2 19462:1
20953:1 20956:1 21429:1 22157:1 22862:2
24217:1 24356:2 25298:1 25776:2 27768:1
31930:1 32231:1 32450:1 33322:1 33679:1
33974:1 42889:1 44323:1 47252:1 47606:1
48220:1 48236:1 48256:1 48639:1
1849 2:1 20:1 656:1 1982:1 2481:1 4234:1
5441:1 5453:1 5456:1 8754:1 13194:1 16808:2
17492:2 18850:1 20324:2 31448:1 32021:1
32231:1 32442:1 33176:1 33679:1 33974:1
35599:1 41309:1 42209:1 42320:1 47246:1
47458:1
4624 7:1 25:1 613:1 2132:1 2491:1 3766:1
5441:1 5453:1 5456:1 9179:1 12097:3 16007:3
17277:3 18616:3 21241:3 31453:1 31830:1
32302:1 32578:1 33346:1 33824:1 33970:1
34530:1 37472:1 39312:1 39337:1 39750:1
40997:1 41006:1 47243:1 47897:1 48223:1
48236:1 48242:1
564 15:1 33:1 858:1 1171:1 2325:1 2760:1
5441:1 5453:1 5456:1 9889:1 15791:1 24126:1
30172:1 31082:1 31462:1 31764:1 32237:1
32450:1 33692:1 33974:1 42785:4 44354:1
47251:1 48046:1 48231:1 48236:1 48252:1
48256:1
3701 14:1 32:1 528:1 1903:1 2457:1 4773:1
5441:1 5453:1 5456:1 9280:1 12813:1 18595:1
18596:1 19896:1 21086:1 21805:1 21810:1
22524:1 22525:1 22804:1 31462:1 31666:1
32327:1 32768:1 33187:1 33679:1 33974:1
37216:1 44215:1 46500:1 47252:1 47853:1
48230:1 48236:1 48252:1 48256:1
2462 2:1 20:1 468:1 1583:1 2531:1 3054:1
5441:1 5453:1 5456:1 8931:1 11424:1 12580:1
14772:1 15769:1 17160:1 17166:1 17611:1
18219:1 19814:1 22322:1 31451:1 32088:1
32265:1 32555:1 33322:1 33679:1 33988:1
36403:1 47252:1 47816:1 48218:1 48236:1
48240:1
827 1:1 19:1 703:1 2258:1 5447:1 5456:1 5907:1
9389:1 9930:1 11663:1 23143:1 31449:1 47243:1
48217:1 48235:1 48238:1
3668 4:1 22:1 425:1 1856:1 2372:1 3855:1
5441:1 5453:1 5456:1 9171:1 22051:1 22933:1
26426:1 27171:1 31082:1 31454:1 31672:1
32231:1 32472:1 33049:1 33827:1 34103:1
47252:1 47796:1 48219:1 48236:1 48243:1
48256:1 48387:1
1006 8:1 26:1 454:1 2103:1 2553:1 4658:1
5451:1 5453:1 5456:1 6318:1 8736:1 10400:1
3120 2:1 20:1 371:1 1751:1 2477:1 5426:1
5441:1 5453:1 5456:1 8467:1 9368:1 10367:1
11764:1 12207:1 17611:1 19615:1 20089:1
31646:1 32219:1 32536:1 33226:1 33679:1
33974:1 47251:1 47761:1 48218:1 48236:1
48240:1 48256:1
4279 14:1 32:1 366:1 2063:1 2408:1 5431:1
5441:1 5453:1 5456:1 8676:1 9694:1 11123:1
11163:1 11591:1 11939:2 12047:2 12540:1
13881:2 14051:1 14216:1 14969:1 15642:1
15962:2 16020:3 16195:1 16310:1 16700:1
16880:1 16943:2 17767:1 17788:1 17798:2
18464:1 18482:1 18486:6 18492:1 18558:1
19123:2 19476:1 19479:1 19882:2 20549:2
20700:1 20702:4 20703:3 20737:2 20811:6
21029:1 21664:4 21873:1 21882:3 22291:1
22577:2 23313:1 23482:1 23523:2 24611:1
24612:2 25496:2 25643:1 25650:1 25776:1
26199:1 26201:2 29861:1 29862:2 30624:1
30938:2 31223:2 31454:1 32006:1 32242:1
32755:1 33253:1 33776:1 33971:1 44102:4
44205:1 44471:1 44877:1 44950:1 44968:1
45139:5 47250:1 47373:1 48230:1 48236:1
48243:1
3186 9:1 27:1 946:1 1794:1 2328:1 3015:1
5449:1 5453:1 5456:1 6423:1 8736:1 10400:
